SATISFIABLE
1 2 3 
SATISFIABLE
461 27 -20 -26 460 28 1 -19 8 -25 459 -33 458 -45 457 68 -66 -67 -95 -129 456 -102 455 147 -145 -146 -196 -247 454 -203 453 262 -260 -261 452 -317 451 -365 450 -402 449 -428 448 441 -439 -440 -447 -2 -18 -30 -31 32 -29 -9 -24 -36 -37 -38 39 -40 -48 -50 -51 52 -53 -54 55 -56 -59 -60 -71 -73 -74 75 -76 -77 78 -79 -85 -93 -94 96 -97 -105 -107 -108 109 -110 -111 112 -113 -130 131 -133 -138 -139 -150 -152 -153 154 -155 -156 157 -158 -174 -186 -194 -195 197 -198 -204 -206 -207 208 -209 210 -211 -220 -248 249 -251 -256 -257 -266 -271 -298 -310 -320 3 34 -44 43 42 -41 35 10 -49 61 -62 -64 82 -88 -117 4 -17 46 -65 63 58 -57 47 11 -23 -72 -83 84 -86 -87 89 -90 116 118 -120 -121 -122 123 -124 127 132 -134 -136 -162 163 -165 -166 172 -173 -178 -224 -5 -69 -100 101 -99 98 -92 91 -81 80 -70 -12 106 -119 128 -140 141 -142 -161 167 -168 -170 -183 -185 187 -188 -189 190 -191 -215 -223 -228 -234 -236 -237 238 -239 -240 241 -242 -277 -285 -287 -288 289 -290 -291 292 -293 -333 -335 -336 337 -338 -339 340 -341 -344 -349 -370 -372 -373 374 -375 -376 377 -378 -384 -392 -397 -404 -405 406 -415 -421 -436 -6 -148 -201 202 -200 199 -193 192 -182 235 246 -258 259 255 -253 -254 -307 -308 -309 311 -312 -313 314 -315 316 -306 -355 356 -357 -358 359 -360 -361 362 -363 364 -354 393 -394 -395 396 -398 399 -400 401 -391 -418 419 -420 422 -423 -424 425 -426 427 -417 416 414 -412 -413 429 -430 -431 432 -433 -442 -443 444 -445 446 437 -435 438 -7 15 16 -103 144 -143 137 -135 -126 125 -115 114 -104 -14 151 -164 -175 176 177 -179 -181 180 171 -169 -160 159 -149 -13 21 22 -184 205 -212 213 -214 216 -217 -218 219 221 -222 -225 226 -227 229 -230 -231 -232 233 -243 244 -245 -250 252 -263 264 -265 267 -268 -269 270 272 -273 -274 275 -276 278 -279 -280 281 -282 283 -284 -286 294 -295 -296 -297 -299 300 -301 -302 303 -304 305 318 -319 321 -322 323 -324 -325 326 -327 -328 329 -330 331 -332 334 342 -343 345 -346 -347 348 -350 351 -352 353 366 -367 -368 369 371 379 -380 -381 382 -383 385 -386 -387 388 -389 390 403 -407 408 -409 -410 411 434 
SATISFIABLE
659 1 658 -21 657 39 -37 -38 -59 656 -64 655 -97 654 -137 653 -185 652 -240 651 -303 650 -366 649 426 -424 -425 648 -479 647 525 -523 -524 646 563 -561 -562 645 594 -592 -593 644 617 -615 -616 643 633 -631 -632 642 635 10 241 -254 -302 301 300 -298 -299 -365 364 363 -361 -362 -367 -423 -634 -637 -638 641 -639 -640 -636 628 619 9 186 -197 -239 238 237 -235 -236 -297 -607 -623 627 -625 -626 -629 -630 -618 612 596 8 138 -148 -184 183 182 -180 -181 -234 -547 567 -578 -584 -601 611 -609 -610 -613 -614 -595 589 565 7 98 -106 -136 135 134 -132 -133 -179 -457 485 -503 -509 529 -541 -553 -572 588 -586 -587 -590 -591 -564 558 527 6 65 -72 -96 95 94 -92 -93 -131 -338 374 -398 -404 432 -451 -463 483 -497 -515 -535 557 -555 -556 -559 -560 -526 520 481 5 40 -45 -63 62 61 -60 58 -56 -57 67 -86 -91 -215 248 -272 -278 310 -332 -344 372 -392 -410 430 -445 -469 -491 519 -517 -518 -521 -522 -480 622 -621 -624 -620 606 605 -603 -604 -608 -597 583 582 -580 -581 -585 -566 552 551 -549 -550 -554 -528 514 513 -511 -512 -516 -482 600 -599 -602 -598 577 576 -574 -575 -579 -568 546 545 -543 -544 -548 -530 508 507 -505 -506 -510 -484 571 -570 -573 -569 540 539 -537 -538 -542 -531 502 501 -499 -500 -504 -486 534 -533 -536 -532 496 495 -493 -494 -498 -487 490 -489 -492 -488 2 11 -14 -20 19 18 -16 -17 -35 -51 101 -112 -124 141 -154 -172 189 -203 -227 244 -260 -290 306 -320 -356 368 -380 -422 421 420 -418 -419 -427 -478 477 476 -474 -475 -3 -12 -13 15 -23 24 -25 -28 -31 -41 43 -44 46 -47 -48 49 50 -52 -53 55 -54 -42 34 33 -32 30 -29 27 -26 22 4 -36 -66 68 -69 70 -71 73 -74 -75 76 77 -78 -79 -80 -81 82 83 -84 -85 87 -88 -89 90 -99 100 -102 -103 104 -105 107 -108 -109 110 111 -113 -114 -115 116 117 -118 -119 -120 -121 122 123 -125 -126 127 -128 -129 130 -139 140 -142 143 -144 -145 146 -147 149 -150 -151 152 153 -155 -156 -157 158 159 -160 -161 -162 -163 164 165 -166 -167 -168 -169 170 171 -173 -174 175 -176 -177 178 -187 188 -190 191 -192 -193 -194 195 -196 198 -199 -200 201 202 -204 -205 -206 207 208 -209 -210 -211 -212 213 214 -216 -217 -218 219 220 -221 -222 -223 -224 225 226 -228 -229 230 -231 -232 233 -242 243 -245 246 -247 -249 -250 -251 252 -253 255 -256 -257 258 259 -261 -262 -263 264 265 -266 -267 -268 -269 270 271 -273 -274 -275 276 277 -279 -280 -281 282 283 -284 -285 -286 -287 288 289 -291 -292 293 -294 -295 296 -304 305 -307 308 -309 -311 -312 -313 -314 315 -316 317 -318 -319 321 322 -323 -324 -325 -326 327 328 -329 -330 -331 333 334 -335 -336 -337 339 340 -341 -342 -343 345 346 -347 -348 -349 -350 351 352 -353 -354 -355 357 -358 -359 360 369 370 -371 -373 -375 -376 -377 -378 -379 381 382 -383 -384 -385 -386 387 388 -389 -390 -391 393 394 -395 -396 -397 399 400 -401 -402 -403 405 406 -407 -408 -409 411 412 -413 -414 -415 -416 417 428 429 -431 -433 -434 -435 -436 -437 438 -439 -440 -441 -442 443 444 -446 -447 -448 449 450 -452 -453 -454 455 456 -458 -459 -460 461 462 -464 -465 -466 467 468 -470 -471 472 -473 
SATISFIABLE
-17 4 5 -6 -10 15 -14 11 2 19 3 -20 18 13 -7 -1 9 -8 -12 16 
timeout
SATISFIABLE
303 1 302 -18 301 -36 300 61 -59 -60 -89 299 94 -92 -93 -129 298 134 -132 -133 -173 297 -175 174 -172 296 212 -210 -211 295 -243 294 -266 293 282 -280 -281 292 -290 -291 2 8 -11 -17 16 15 -13 -14 -32 -48 3 9 10 -12 20 -21 -23 -26 -29 -4 -19 -22 24 25 -27 -28 30 31 -33 -34 35 -38 -39 -40 -41 -45 -51 -53 -56 64 -65 -74 -80 -83 99 -114 -117 -139 140 -152 -155 -158 -179 181 -189 -192 -201 -214 218 -220 -223 -238 248 -249 -5 -37 42 -43 -44 46 47 -49 -50 52 -54 55 -57 58 -63 -66 67 -68 -71 -78 -86 97 -98 101 -105 -108 -120 -123 138 -161 180 -195 -198 -216 217 -226 -229 -232 -245 247 250 -251 -252 253 -254 -255 -261 270 -271 6 62 -69 70 -72 73 -75 76 77 -79 81 -82 84 -85 87 -88 90 -91 96 -100 -103 -112 -127 137 -147 -165 -256 257 -259 7 95 102 -104 106 -107 109 -110 -111 113 -115 116 -118 119 -121 122 -124 125 126 -128 130 -131 135 -136 141 -142 143 -144 -145 -146 148 -149 -150 151 -153 154 -156 157 -159 160 -162 163 164 -166 -167 -168 169 170 -171 -176 177 -178 182 183 -184 -185 -186 187 -188 190 -191 193 -194 196 -197 199 -200 202 -203 -204 -205 206 207 -208 -209 -213 215 -219 -221 222 -224 225 -227 228 -230 231 -233 234 -235 -236 237 -239 240 241 -242 -244 246 -258 260 -262 263 264 -265 -267 268 269 -272 273 -274 -275 276 277 -278 -279 -283 284 -285 -286 287 -289 288 
SATISFIABLE
15 18 1 -10 14 20 -12 -17 -7 -3 16 4 6 -19 5 -11 2 9 13 8 
timeout
timeout
SATISFIABLE
303 1 302 -18 301 36 -34 -35 -56 300 61 -59 -60 -89 299 94 -92 -93 -129 298 -134 297 175 -173 -174 296 -212 295 -243 294 266 -264 -265 293 282 -280 -281 292 -290 -291 -2 -8 -10 -16 17 -15 -20 -22 -28 -31 39 -47 -50 -65 66 -74 -77 -80 -98 100 -108 -111 -120 -137 141 -146 -149 -164 -177 182 -183 -186 -207 219 -220 3 9 -11 12 13 -14 -21 -26 4 19 -23 24 25 -27 29 -30 32 -33 38 -40 -42 -45 -54 -115 -5 -37 -41 43 44 -46 48 -49 51 -52 -53 55 -57 58 -63 64 -67 -68 -72 -83 -86 97 99 -117 -123 138 -139 -152 -158 -161 180 -195 -198 -216 217 -226 -229 -232 -245 247 -249 -252 -261 267 270 -271 279 -277 -278 283 -288 289 -287 285 7 95 -103 -133 132 131 -130 128 -126 -127 135 136 -144 -167 -171 -172 170 169 -168 166 -165 163 -162 160 -159 157 -155 -156 -176 178 181 -192 -204 -211 210 209 -208 206 -205 203 -201 -202 -213 214 215 -221 222 -224 -235 -239 -242 241 240 -238 -237 236 -234 233 -231 230 -228 227 -225 223 -218 189 179 6 62 -69 70 71 -73 75 -76 78 -79 81 -82 84 -85 87 -88 90 -91 96 -101 102 -104 -105 -106 107 -109 110 -112 113 114 -116 118 -119 121 -122 124 -125 -140 -142 143 -145 147 -148 150 -151 153 -154 -184 185 -187 188 -190 -191 193 -194 196 -197 199 -200 -244 246 -248 -250 251 -253 254 255 -256 -257 -258 259 -260 262 -263 268 -269 -272 273 274 -275 -276 -284 -286 
SATISFIABLE
20 12 6 17 -16 -14 -5 15 8 19 -13 -4 -18 -3 -7 -2 -10 -1 9 -11 
SATISFIABLE
1 4 -5 2 3 
SATISFIABLE
791 35 -26 -34 790 36 1 -25 10 -33 789 -41 788 -53 787 -76 786 -110 785 -155 784 211 -209 -210 -271 -338 783 278 -276 -277 -349 -422 782 356 -354 -355 -433 -506 781 437 -435 -436 780 -514 779 -584 778 -643 777 -691 776 -728 775 -754 774 767 -765 -766 -773 2 38 -40 39 37 11 44 -45 -46 47 -48 -57 58 -60 -61 3 -24 42 -52 51 50 -49 43 12 -32 56 59 -62 63 -64 67 -68 -69 70 -71 -80 81 -83 -84 90 -91 92 -94 -95 -96 97 -98 -125 126 -128 -129 4 -23 54 -75 74 73 -72 66 -65 55 13 -31 79 82 -85 86 -87 93 101 -102 -103 104 -105 -114 115 -117 -118 124 -130 131 -132 135 -136 137 -139 -140 -141 142 -143 -170 171 -173 -174 180 -181 182 -184 -185 -186 187 -188 -237 238 -240 -241 5 -22 77 -109 108 107 -106 100 -99 89 -88 78 14 -30 113 116 -119 120 -121 127 138 146 -147 -148 149 -150 -159 160 -162 -163 169 -175 176 -177 191 -192 193 -195 -196 -197 198 -199 -226 227 -229 -230 236 -242 243 -244 247 -248 249 -251 -252 -253 254 -255 -304 305 -307 -308 314 -315 316 -318 -319 -320 321 -322 -388 389 -391 -392 -6 -111 -153 154 -152 151 -145 144 -134 133 -123 122 -112 -15 -158 -161 164 -165 -167 -172 -183 -194 -202 -203 -204 205 -206 -217 -225 231 -232 -234 -258 -260 -261 262 -263 -264 265 -266 -295 -303 309 -310 -312 -325 -327 -328 329 -330 -331 332 -333 -379 -387 393 -394 -396 -398 -400 -401 402 -403 -404 405 -406 -463 -471 -473 -474 475 -476 -477 478 -479 -541 -543 -544 545 -546 -547 548 -549 -552 -557 -600 -602 -603 604 -605 -606 607 -608 -614 -622 -627 -648 -650 -651 652 -653 -654 655 -656 -673 -681 -686 -693 -694 695 -704 -721 -731 -7 -156 208 -207 201 -200 190 -189 179 -178 168 -166 -157 -16 -214 215 -216 218 -219 -220 221 -222 228 239 250 -259 -269 -270 272 -273 -283 -284 285 -287 -292 -297 -336 -339 340 -341 -342 343 -344 -359 -368 -376 -381 -409 -411 -412 413 -414 -415 416 -417 -452 -460 -465 -482 -484 -485 486 -487 -488 489 -490 -533 -554 -555 556 -558 559 -560 -611 -613 615 -616 -617 618 -619 -659 -661 -662 663 -664 -665 666 -667 -670 -675 -696 -698 -699 700 -701 -702 703 705 -706 -710 -715 -718 -723 729 -730 732 -736 -741 -747 -762 -8 -279 353 -351 -352 -431 -432 434 430 -428 -429 -504 -505 -507 508 -509 -510 511 -512 513 -503 -574 575 -576 -577 578 -579 -580 581 -582 583 -573 -633 634 -635 -636 637 -638 -639 640 -641 642 -632 682 -683 -684 685 -687 688 -689 690 -680 719 -720 722 -724 725 -726 727 -717 716 714 -712 -713 -744 745 -746 748 -749 -750 751 -752 753 -743 742 740 -738 -739 755 -756 -757 758 -759 -768 -769 770 -771 772 763 -761 764 -9 19 20 21 -212 275 -274 268 -267 257 -256 246 -245 235 -233 -224 223 -213 -18 -281 282 -286 288 -289 293 -294 296 -298 299 -300 306 317 -326 -337 -347 -348 350 346 -345 335 -334 324 -323 313 -311 -302 301 -291 290 -280 -17 27 28 29 -357 358 -360 361 -362 363 -364 -365 366 -367 369 -370 -371 372 -373 374 -375 377 -378 380 -382 383 -384 385 -386 390 -395 397 -399 -407 408 -410 -418 419 -420 -421 -423 424 -425 -426 427 -438 439 -440 -441 442 -443 -444 445 -446 447 -448 -449 450 -451 453 -454 -455 456 -457 458 -459 461 -462 464 -466 467 -468 469 -470 -472 480 -481 -483 491 -492 -493 -494 -495 -496 497 -498 -499 500 -501 502 515 -516 -517 518 -519 520 -521 -522 523 -524 -525 526 -527 528 -529 -530 531 -532 534 -535 -536 537 -538 539 -540 542 550 -551 553 561 -562 -563 564 -565 -566 567 -568 -569 570 -571 572 585 -586 -587 588 -589 590 -591 -592 593 -594 -595 596 -597 598 -599 601 609 -610 612 620 -621 623 -624 -625 626 -628 629 -630 631 644 -645 -646 647 649 657 -658 660 668 -669 671 -672 674 -676 677 -678 679 692 697 -707 708 -709 711 -733 734 -735 737 760 
SATISFIABLE
16 5 -20 -1 9 -10 -13 7 19 -3 -12 -15 -14 17 -6 -11 2 -8 4 -18 
SATISFIABLE
-4 -6 -16 -2 12 10 -15 18 -1 -17 11 19 -9 8 -13 20 -7 5 14 -3 
SATISFIABLE
329 23 -17 -22 328 24 1 -16 7 -21 327 -29 326 -41 325 64 -62 -63 -91 -125 324 98 -96 -97 -136 -176 323 143 -141 -142 -187 -227 322 191 -189 -190 321 -235 320 -272 319 -298 318 311 -309 -310 -317 2 26 -28 27 25 8 32 -33 -34 35 -36 -45 46 -48 -49 -3 -30 -39 40 -38 37 -31 -9 -44 -47 50 -51 -53 -55 -56 -57 58 -59 -70 -78 -80 -81 82 -83 -84 85 -86 -112 -114 -115 116 -117 -118 119 -120 -123 -128 -152 -154 -155 156 -157 -158 159 -160 -166 -174 -179 -192 -194 -195 196 -197 -198 199 -200 -217 -225 -230 -237 -238 239 -248 -265 -275 4 -14 -15 42 -61 60 -54 52 43 10 -19 -20 67 -68 69 -71 -72 -73 74 -75 79 89 90 -92 -94 -102 103 -105 -106 -124 163 -169 -204 -5 -99 140 -138 -139 -185 -186 188 184 -182 -183 -226 -228 229 -231 232 -233 234 -224 -262 263 -264 266 -267 -268 269 -270 271 -261 -288 289 -290 -291 292 -293 -294 295 -296 297 -287 299 -300 -301 302 -303 -312 -313 314 -315 316 307 -305 -306 308 -6 13 -65 95 -93 -88 87 -77 76 -66 -12 -101 -104 107 -108 -110 113 -126 127 -129 130 -131 -134 -135 137 133 -132 122 -121 111 -109 -100 -11 18 -144 145 -146 -147 148 -149 150 -151 -153 161 -162 -164 -165 167 168 -170 -171 -172 173 -175 -177 178 -180 181 193 201 -202 -203 -205 -206 207 -208 -209 210 -211 212 -213 -214 -215 -216 218 -219 -220 221 -222 223 236 -240 241 -242 -243 244 -245 -246 247 249 -250 -251 252 -253 -254 255 -256 -257 258 -259 260 273 -274 276 -277 278 -279 -280 281 -282 -283 284 -285 286 304 
SATISFIABLE
-1 2 3 
SATISFIABLE
7 -17 2 8 -1 -18 -6 4 9 15 3 -11 14 12 -10 13 16 19 5 20 
timeout
SATISFIABLE
-1 -2 3 
SATISFIABLE
8 -5 6 -3 -18 -2 19 -7 -13 10 16 4 1 -9 -12 14 -11 15 17 20 
timeout
SATISFIABLE
303 1 302 -18 301 36 -34 -35 -56 300 61 -59 -60 -89 299 -94 298 134 -132 -133 -173 297 175 -174 172 -170 -171 176 -210 296 212 -211 209 -207 -208 213 -241 295 243 -242 240 -238 -239 244 -264 294 266 -265 263 -261 -262 267 -280 293 -282 281 -279 292 -290 -291 2 8 -11 -17 16 15 -13 -14 -32 -48 -3 -9 -10 12 -20 21 -22 -25 -28 -38 40 -41 -44 -53 -63 64 67 -68 -71 -83 -86 -96 97 101 -102 -105 -123 -126 -135 142 -143 144 -145 -146 169 -167 -168 -183 -4 -19 23 -24 26 -27 29 -30 -31 33 39 -50 -65 -74 -80 99 -114 -117 -139 140 -152 -155 -158 -179 181 -189 -192 -201 -214 218 -220 -223 237 -235 -236 248 -249 -5 -37 42 -43 45 -46 -47 49 -51 52 -54 55 -57 58 66 -77 -98 100 -108 -111 -120 138 141 -149 -161 180 182 -186 -195 -198 -216 217 219 221 -222 224 -225 -226 227 -228 -229 230 -231 -232 233 -234 -215 204 -178 164 137 6 62 -69 70 -72 73 -75 76 -78 79 -81 82 -84 85 -87 88 -90 91 92 -93 -130 -147 148 -150 151 -153 154 -156 157 -159 160 -162 163 -165 -166 -136 129 128 -127 125 -124 122 -121 119 -118 116 -115 113 -112 110 -109 107 -106 104 -103 95 7 -131 177 -184 185 -187 188 -190 191 -193 194 -196 197 -199 200 -202 203 -205 -206 -245 246 247 250 -251 -252 253 -254 -255 -256 257 -258 -259 260 268 269 270 -271 -272 273 -274 -275 276 277 -278 -283 284 -285 -286 287 -289 288 
SATISFIABLE
-11 10 9 7 14 -18 19 12 -20 4 2 -3 -5 -16 1 -17 8 15 6 13 
